(set-logic QF_LRA)
(declare-fun act_unload_at_depot@1 () Bool)
(declare-fun parameter_unload_at_depot_pos@1 () Real)
(declare-fun fluent_robot_at_r0_p0@0 () Bool)
(declare-fun fluent_robot_at_r1_p0@0 () Bool)
(declare-fun parameter_unload_at_depot_r@1 () Real)
(declare-fun fluent_robot_at_r0_p1@0 () Bool)
(declare-fun fluent_robot_free_r0@0 () Bool)
(declare-fun fluent_robot_free_r1@0 () Bool)
(declare-fun fluent_robot_at_r1_p1@0 () Bool)
(declare-fun parameter_unload_at_depot_pallet@1 () Real)
(declare-fun fluent_pallet_at_plt0_p0@0 () Bool)
(declare-fun fluent_pallet_at_plt0_p1@0 () Bool)
(declare-fun fluent_battery_level_r0@0 () Real)
(declare-fun fluent_battery_level_r1@0 () Real)
(declare-fun fluent_position_free_p0@0 () Bool)
(declare-fun fluent_position_free_p1@0 () Bool)
(declare-fun dur_make_treatment@1 () Real)
(declare-fun t@1 () Real)
(declare-fun fluent_robot_has_r0_plt0@0 () Bool)
(declare-fun fluent_robot_has_r1_plt0@0 () Bool)
(declare-fun parameter_make_treatment_t@1 () Real)
(declare-fun fluent_ready_plt0_p0_t0@0 () Bool)
(declare-fun fluent_ready_plt0_p1_t0@0 () Bool)
(declare-fun fluent_ready_plt0_p0_t1@0 () Bool)
(declare-fun fluent_ready_plt0_p1_t1@0 () Bool)
(declare-fun fluent_ready_plt0_p0_t2@0 () Bool)
(declare-fun fluent_ready_plt0_p1_t2@0 () Bool)
(declare-fun fluent_ready_plt0_p0_t3@0 () Bool)
(declare-fun fluent_ready_plt0_p1_t3@0 () Bool)
(declare-fun parameter_make_treatment_pallet@1 () Real)
(declare-fun parameter_make_treatment_r@1 () Real)
(declare-fun fluent_treated_plt0_t0@0 () Bool)
(declare-fun fluent_treated_plt0_t1@0 () Bool)
(declare-fun fluent_treated_plt0_t2@0 () Bool)
(declare-fun fluent_treated_plt0_t3@0 () Bool)
(declare-fun parameter_make_treatment_pos@1 () Real)
(declare-fun act_move@1 () Bool)
(declare-fun parameter_move_topos@1 () Real)
(declare-fun parameter_move_frompos@1 () Real)
(declare-fun parameter_move_r@1 () Real)
(declare-fun fluent_robot_at_r0_p0@1 () Bool)
(declare-fun fluent_robot_at_r1_p0@1 () Bool)
(declare-fun fluent_robot_at_r0_p1@1 () Bool)
(declare-fun fluent_robot_at_r1_p1@1 () Bool)
(declare-fun fluent_battery_level_r0@1 () Real)
(declare-fun fluent_battery_level_r1@1 () Real)
(declare-fun act_load@1 () Bool)
(declare-fun parameter_load_t@1 () Real)
(declare-fun act_make_treatment@1 () Bool)
(declare-fun parameter_load_pos@1 () Real)
(declare-fun parameter_load_pallet@1 () Real)
(declare-fun parameter_load_r@1 () Real)
(declare-fun fluent_robot_free_r0@1 () Bool)
(declare-fun fluent_robot_free_r1@1 () Bool)
(declare-fun fluent_ready_plt0_p0_t0@1 () Bool)
(declare-fun fluent_ready_plt0_p1_t0@1 () Bool)
(declare-fun fluent_ready_plt0_p0_t1@1 () Bool)
(declare-fun fluent_ready_plt0_p1_t1@1 () Bool)
(declare-fun fluent_ready_plt0_p0_t2@1 () Bool)
(declare-fun fluent_ready_plt0_p1_t2@1 () Bool)
(declare-fun fluent_ready_plt0_p0_t3@1 () Bool)
(declare-fun fluent_ready_plt0_p1_t3@1 () Bool)
(declare-fun fluent_pallet_at_plt0_p0@1 () Bool)
(declare-fun fluent_pallet_at_plt0_p1@1 () Bool)
(declare-fun fluent_robot_has_r0_plt0@1 () Bool)
(declare-fun fluent_robot_has_r1_plt0@1 () Bool)
(declare-fun fluent_treated_plt0_t0@1 () Bool)
(declare-fun fluent_treated_plt0_t1@1 () Bool)
(declare-fun fluent_treated_plt0_t2@1 () Bool)
(declare-fun fluent_treated_plt0_t3@1 () Bool)
(declare-fun fluent_position_free_p0@1 () Bool)
(declare-fun fluent_position_free_p1@1 () Bool)
(declare-fun act_load_at_depot@1 () Bool)
(declare-fun parameter_load_at_depot_pos@1 () Real)
(declare-fun parameter_load_at_depot_r@1 () Real)
(declare-fun parameter_load_at_depot_pallet@1 () Real)
(assert (let ((.def_0 (<= fluent_battery_level_r1@1 100.0))) (let ((.def_1 (<= 0.0 fluent_battery_level_r1@1))) (let ((.def_2 (<= fluent_battery_level_r0@1 100.0))) (let ((.def_3 (<= 0.0 fluent_battery_level_r0@1))) (let ((.def_4 (= parameter_load_at_depot_pallet@1 4.0))) (let ((.def_5 (= parameter_load_at_depot_r@1 1.0))) (let ((.def_6 (= parameter_load_at_depot_r@1 0.0))) (let ((.def_7 (or .def_6 .def_5))) (let ((.def_8 (= parameter_load_at_depot_pos@1 3.0))) (let ((.def_9 (= parameter_load_at_depot_pos@1 2.0))) (let ((.def_10 (or .def_9 .def_8))) (let ((.def_11 (= parameter_move_r@1 1.0))) (let ((.def_12 (= parameter_move_r@1 0.0))) (let ((.def_13 (or .def_12 .def_11))) (let ((.def_14 (= parameter_move_frompos@1 3.0))) (let ((.def_15 (= parameter_move_frompos@1 2.0))) (let ((.def_16 (or .def_15 .def_14))) (let ((.def_17 (= parameter_move_topos@1 3.0))) (let ((.def_18 (= parameter_move_topos@1 2.0))) (let ((.def_19 (or .def_18 .def_17))) (let ((.def_20 (= parameter_make_treatment_pos@1 3.0))) (let ((.def_21 (= parameter_make_treatment_pos@1 2.0))) (let ((.def_22 (or .def_21 .def_20))) (let ((.def_23 (= parameter_make_treatment_r@1 1.0))) (let ((.def_24 (= parameter_make_treatment_r@1 0.0))) (let ((.def_25 (or .def_24 .def_23))) (let ((.def_26 (= parameter_make_treatment_pallet@1 4.0))) (let ((.def_27 (= parameter_make_treatment_t@1 8.0))) (let ((.def_28 (= parameter_make_treatment_t@1 7.0))) (let ((.def_29 (= parameter_make_treatment_t@1 6.0))) (let ((.def_30 (= parameter_make_treatment_t@1 5.0))) (let ((.def_31 (or .def_30 .def_29 .def_28 .def_27))) (let ((.def_32 (= parameter_load_r@1 1.0))) (let ((.def_33 (= parameter_load_r@1 0.0))) (let ((.def_34 (or .def_33 .def_32))) (let ((.def_35 (= parameter_unload_at_depot_pallet@1 4.0))) (let ((.def_36 (= parameter_load_pallet@1 4.0))) (let ((.def_37 (= parameter_load_pos@1 3.0))) (let ((.def_38 (= parameter_load_pos@1 2.0))) (let ((.def_39 (or .def_38 .def_37))) (let ((.def_40 (= parameter_unload_at_depot_r@1 1.0))) (let ((.def_41 (= parameter_unload_at_depot_r@1 0.0))) (let ((.def_42 (or .def_41 .def_40))) (let ((.def_43 (= parameter_load_t@1 8.0))) (let ((.def_44 (= parameter_load_t@1 7.0))) (let ((.def_45 (= parameter_load_t@1 6.0))) (let ((.def_46 (= parameter_load_t@1 5.0))) (let ((.def_47 (or .def_46 .def_45 .def_44 .def_43))) (let ((.def_48 (= parameter_unload_at_depot_pos@1 3.0))) (let ((.def_49 (= parameter_unload_at_depot_pos@1 2.0))) (let ((.def_50 (or .def_49 .def_48))) (let ((.def_51 (and act_move@1 true .def_11))) (let ((.def_52 (= fluent_battery_level_r1@0 fluent_battery_level_r1@1))) (let ((.def_53 (not .def_52))) (let ((.def_54 (=> .def_53 .def_51))) (let ((.def_55 (and act_move@1 true .def_12))) (let ((.def_56 (= fluent_battery_level_r0@0 fluent_battery_level_r0@1))) (let ((.def_57 (not .def_56))) (let ((.def_58 (=> .def_57 .def_55))) (let ((.def_59 (and act_make_treatment@1 true .def_26 .def_20))) (let ((.def_60 (and act_unload_at_depot@1 true .def_35 .def_48))) (let ((.def_61 (and .def_60 .def_59))) (let ((.def_62 (not .def_61))) (let ((.def_63 (and act_load_at_depot@1 true .def_4 .def_8))) (let ((.def_64 (and .def_63 .def_59))) (let ((.def_65 (not .def_64))) (let ((.def_66 (and .def_63 .def_60))) (let ((.def_67 (not .def_66))) (let ((.def_68 (and act_load@1 true .def_36 .def_37))) (let ((.def_69 (and .def_68 .def_59))) (let ((.def_70 (not .def_69))) (let ((.def_71 (and .def_68 .def_60))) (let ((.def_72 (not .def_71))) (let ((.def_73 (and .def_68 .def_63))) (let ((.def_74 (not .def_73))) (let ((.def_75 (or .def_68 .def_63 .def_60 .def_59))) (let ((.def_76 (= fluent_pallet_at_plt0_p1@0 fluent_pallet_at_plt0_p1@1))) (let ((.def_77 (not .def_76))) (let ((.def_78 (=> .def_77 .def_75))) (let ((.def_79 (and act_make_treatment@1 true .def_26 .def_21))) (let ((.def_80 (and act_unload_at_depot@1 true .def_35 .def_49))) (let ((.def_81 (and .def_80 .def_79))) (let ((.def_82 (not .def_81))) (let ((.def_83 (and act_load_at_depot@1 true .def_4 .def_9))) (let ((.def_84 (and .def_83 .def_79))) (let ((.def_85 (not .def_84))) (let ((.def_86 (and .def_83 .def_80))) (let ((.def_87 (not .def_86))) (let ((.def_88 (and act_load@1 true .def_36 .def_38))) (let ((.def_89 (and .def_88 .def_79))) (let ((.def_90 (not .def_89))) (let ((.def_91 (and .def_88 .def_80))) (let ((.def_92 (not .def_91))) (let ((.def_93 (and .def_88 .def_83))) (let ((.def_94 (not .def_93))) (let ((.def_95 (or .def_88 .def_83 .def_80 .def_79))) (let ((.def_96 (= fluent_pallet_at_plt0_p0@0 fluent_pallet_at_plt0_p0@1))) (let ((.def_97 (not .def_96))) (let ((.def_98 (=> .def_97 .def_95))) (let ((.def_99 (and act_load@1 true .def_36 .def_43))) (let ((.def_100 (= fluent_treated_plt0_t3@0 fluent_treated_plt0_t3@1))) (let ((.def_101 (not .def_100))) (let ((.def_102 (=> .def_101 .def_99))) (let ((.def_103 (and act_load@1 true .def_36 .def_44))) (let ((.def_104 (= fluent_treated_plt0_t2@0 fluent_treated_plt0_t2@1))) (let ((.def_105 (not .def_104))) (let ((.def_106 (=> .def_105 .def_103))) (let ((.def_107 (and act_load@1 true .def_36 .def_45))) (let ((.def_108 (= fluent_treated_plt0_t1@0 fluent_treated_plt0_t1@1))) (let ((.def_109 (not .def_108))) (let ((.def_110 (=> .def_109 .def_107))) (let ((.def_111 (and act_load@1 true .def_36 .def_46))) (let ((.def_112 (= fluent_treated_plt0_t0@0 fluent_treated_plt0_t0@1))) (let ((.def_113 (not .def_112))) (let ((.def_114 (=> .def_113 .def_111))) (let ((.def_115 (and act_make_treatment@1 true .def_20))) (let ((.def_116 (and act_load@1 true .def_37))) (let ((.def_117 (and .def_116 .def_115))) (let ((.def_118 (not .def_117))) (let ((.def_119 (or .def_116 .def_115))) (let ((.def_120 (= fluent_position_free_p1@0 fluent_position_free_p1@1))) (let ((.def_121 (not .def_120))) (let ((.def_122 (=> .def_121 .def_119))) (let ((.def_123 (and act_make_treatment@1 true .def_21))) (let ((.def_124 (and act_load@1 true .def_38))) (let ((.def_125 (and .def_124 .def_123))) (let ((.def_126 (not .def_125))) (let ((.def_127 (or .def_124 .def_123))) (let ((.def_128 (= fluent_position_free_p0@0 fluent_position_free_p0@1))) (let ((.def_129 (not .def_128))) (let ((.def_130 (=> .def_129 .def_127))) (let ((.def_131 (+ t@1 10.0))) (let ((.def_132 (= t@1 .def_131))) (let ((.def_133 (and act_make_treatment@1 true .def_132 .def_26 .def_20 .def_27))) (let ((.def_134 (and act_load@1 true .def_36 .def_37 .def_43))) (let ((.def_135 (and .def_134 .def_133))) (let ((.def_136 (not .def_135))) (let ((.def_137 (or .def_134 .def_133))) (let ((.def_138 (= fluent_ready_plt0_p1_t3@0 fluent_ready_plt0_p1_t3@1))) (let ((.def_139 (not .def_138))) (let ((.def_140 (=> .def_139 .def_137))) (let ((.def_141 (and act_make_treatment@1 true .def_132 .def_26 .def_21 .def_27))) (let ((.def_142 (and act_load@1 true .def_36 .def_38 .def_43))) (let ((.def_143 (and .def_142 .def_141))) (let ((.def_144 (not .def_143))) (let ((.def_145 (or .def_142 .def_141))) (let ((.def_146 (= fluent_ready_plt0_p0_t3@0 fluent_ready_plt0_p0_t3@1))) (let ((.def_147 (not .def_146))) (let ((.def_148 (=> .def_147 .def_145))) (let ((.def_149 (and act_make_treatment@1 true .def_132 .def_26 .def_20 .def_28))) (let ((.def_150 (and act_load@1 true .def_36 .def_37 .def_44))) (let ((.def_151 (and .def_150 .def_149))) (let ((.def_152 (not .def_151))) (let ((.def_153 (or .def_150 .def_149))) (let ((.def_154 (= fluent_ready_plt0_p1_t2@0 fluent_ready_plt0_p1_t2@1))) (let ((.def_155 (not .def_154))) (let ((.def_156 (=> .def_155 .def_153))) (let ((.def_157 (and act_make_treatment@1 true .def_132 .def_26 .def_21 .def_28))) (let ((.def_158 (and act_load@1 true .def_36 .def_38 .def_44))) (let ((.def_159 (and .def_158 .def_157))) (let ((.def_160 (not .def_159))) (let ((.def_161 (or .def_158 .def_157))) (let ((.def_162 (= fluent_ready_plt0_p0_t2@0 fluent_ready_plt0_p0_t2@1))) (let ((.def_163 (not .def_162))) (let ((.def_164 (=> .def_163 .def_161))) (let ((.def_165 (and act_make_treatment@1 true .def_132 .def_26 .def_20 .def_29))) (let ((.def_166 (and act_load@1 true .def_36 .def_37 .def_45))) (let ((.def_167 (and .def_166 .def_165))) (let ((.def_168 (not .def_167))) (let ((.def_169 (or .def_166 .def_165))) (let ((.def_170 (= fluent_ready_plt0_p1_t1@0 fluent_ready_plt0_p1_t1@1))) (let ((.def_171 (not .def_170))) (let ((.def_172 (=> .def_171 .def_169))) (let ((.def_173 (and act_make_treatment@1 true .def_132 .def_26 .def_21 .def_29))) (let ((.def_174 (and act_load@1 true .def_36 .def_38 .def_45))) (let ((.def_175 (and .def_174 .def_173))) (let ((.def_176 (not .def_175))) (let ((.def_177 (or .def_174 .def_173))) (let ((.def_178 (= fluent_ready_plt0_p0_t1@0 fluent_ready_plt0_p0_t1@1))) (let ((.def_179 (not .def_178))) (let ((.def_180 (=> .def_179 .def_177))) (let ((.def_181 (and act_make_treatment@1 true .def_132 .def_26 .def_20 .def_30))) (let ((.def_182 (and act_load@1 true .def_36 .def_37 .def_46))) (let ((.def_183 (and .def_182 .def_181))) (let ((.def_184 (not .def_183))) (let ((.def_185 (or .def_182 .def_181))) (let ((.def_186 (= fluent_ready_plt0_p1_t0@0 fluent_ready_plt0_p1_t0@1))) (let ((.def_187 (not .def_186))) (let ((.def_188 (=> .def_187 .def_185))) (let ((.def_189 (and act_make_treatment@1 true .def_132 .def_26 .def_21 .def_30))) (let ((.def_190 (and act_load@1 true .def_36 .def_38 .def_46))) (let ((.def_191 (and .def_190 .def_189))) (let ((.def_192 (not .def_191))) (let ((.def_193 (or .def_190 .def_189))) (let ((.def_194 (= fluent_ready_plt0_p0_t0@0 fluent_ready_plt0_p0_t0@1))) (let ((.def_195 (not .def_194))) (let ((.def_196 (=> .def_195 .def_193))) (let ((.def_197 (and act_make_treatment@1 true .def_23 .def_26))) (let ((.def_198 (and act_unload_at_depot@1 true .def_40 .def_35))) (let ((.def_199 (and .def_198 .def_197))) (let ((.def_200 (not .def_199))) (let ((.def_201 (and act_load_at_depot@1 true .def_5 .def_4))) (let ((.def_202 (and .def_201 .def_197))) (let ((.def_203 (not .def_202))) (let ((.def_204 (and .def_201 .def_198))) (let ((.def_205 (not .def_204))) (let ((.def_206 (and act_load@1 true .def_32 .def_36))) (let ((.def_207 (and .def_206 .def_197))) (let ((.def_208 (not .def_207))) (let ((.def_209 (and .def_206 .def_198))) (let ((.def_210 (not .def_209))) (let ((.def_211 (and .def_206 .def_201))) (let ((.def_212 (not .def_211))) (let ((.def_213 (or .def_206 .def_201 .def_198 .def_197))) (let ((.def_214 (= fluent_robot_has_r1_plt0@0 fluent_robot_has_r1_plt0@1))) (let ((.def_215 (not .def_214))) (let ((.def_216 (=> .def_215 .def_213))) (let ((.def_217 (and act_make_treatment@1 true .def_24 .def_26))) (let ((.def_218 (and act_unload_at_depot@1 true .def_41 .def_35))) (let ((.def_219 (and .def_218 .def_217))) (let ((.def_220 (not .def_219))) (let ((.def_221 (and act_load_at_depot@1 true .def_6 .def_4))) (let ((.def_222 (and .def_221 .def_217))) (let ((.def_223 (not .def_222))) (let ((.def_224 (and .def_221 .def_218))) (let ((.def_225 (not .def_224))) (let ((.def_226 (and act_load@1 true .def_33 .def_36))) (let ((.def_227 (and .def_226 .def_217))) (let ((.def_228 (not .def_227))) (let ((.def_229 (and .def_226 .def_218))) (let ((.def_230 (not .def_229))) (let ((.def_231 (and .def_226 .def_221))) (let ((.def_232 (not .def_231))) (let ((.def_233 (or .def_226 .def_221 .def_218 .def_217))) (let ((.def_234 (= fluent_robot_has_r0_plt0@0 fluent_robot_has_r0_plt0@1))) (let ((.def_235 (not .def_234))) (let ((.def_236 (=> .def_235 .def_233))) (let ((.def_237 (and act_make_treatment@1 true .def_23))) (let ((.def_238 (and act_unload_at_depot@1 true .def_40))) (let ((.def_239 (and .def_238 .def_237))) (let ((.def_240 (not .def_239))) (let ((.def_241 (and act_load_at_depot@1 true .def_5))) (let ((.def_242 (and .def_241 .def_237))) (let ((.def_243 (not .def_242))) (let ((.def_244 (and .def_241 .def_238))) (let ((.def_245 (not .def_244))) (let ((.def_246 (and act_load@1 true .def_32))) (let ((.def_247 (and .def_246 .def_237))) (let ((.def_248 (not .def_247))) (let ((.def_249 (and .def_246 .def_238))) (let ((.def_250 (not .def_249))) (let ((.def_251 (and .def_246 .def_241))) (let ((.def_252 (not .def_251))) (let ((.def_253 (or .def_246 .def_241 .def_238 .def_237))) (let ((.def_254 (= fluent_robot_free_r1@0 fluent_robot_free_r1@1))) (let ((.def_255 (not .def_254))) (let ((.def_256 (=> .def_255 .def_253))) (let ((.def_257 (and act_make_treatment@1 true .def_24))) (let ((.def_258 (and act_unload_at_depot@1 true .def_41))) (let ((.def_259 (and .def_258 .def_257))) (let ((.def_260 (not .def_259))) (let ((.def_261 (and act_load_at_depot@1 true .def_6))) (let ((.def_262 (and .def_261 .def_257))) (let ((.def_263 (not .def_262))) (let ((.def_264 (and .def_261 .def_258))) (let ((.def_265 (not .def_264))) (let ((.def_266 (and act_load@1 true .def_33))) (let ((.def_267 (and .def_266 .def_257))) (let ((.def_268 (not .def_267))) (let ((.def_269 (and .def_266 .def_258))) (let ((.def_270 (not .def_269))) (let ((.def_271 (and .def_266 .def_261))) (let ((.def_272 (not .def_271))) (let ((.def_273 (or .def_266 .def_261 .def_258 .def_257))) (let ((.def_274 (= fluent_robot_free_r0@0 fluent_robot_free_r0@1))) (let ((.def_275 (not .def_274))) (let ((.def_276 (=> .def_275 .def_273))) (let ((.def_277 (and act_move@1 true .def_11 .def_14))) (let ((.def_278 (and act_move@1 true .def_11 .def_17))) (let ((.def_279 (and .def_278 .def_277))) (let ((.def_280 (not .def_279))) (let ((.def_281 (or .def_278 .def_277))) (let ((.def_282 (= fluent_robot_at_r1_p1@0 fluent_robot_at_r1_p1@1))) (let ((.def_283 (not .def_282))) (let ((.def_284 (=> .def_283 .def_281))) (let ((.def_285 (and act_move@1 true .def_12 .def_14))) (let ((.def_286 (and act_move@1 true .def_12 .def_17))) (let ((.def_287 (and .def_286 .def_285))) (let ((.def_288 (not .def_287))) (let ((.def_289 (or .def_286 .def_285))) (let ((.def_290 (= fluent_robot_at_r0_p1@0 fluent_robot_at_r0_p1@1))) (let ((.def_291 (not .def_290))) (let ((.def_292 (=> .def_291 .def_289))) (let ((.def_293 (and act_move@1 true .def_11 .def_15))) (let ((.def_294 (and act_move@1 true .def_11 .def_18))) (let ((.def_295 (and .def_294 .def_293))) (let ((.def_296 (not .def_295))) (let ((.def_297 (or .def_294 .def_293))) (let ((.def_298 (= fluent_robot_at_r1_p0@0 fluent_robot_at_r1_p0@1))) (let ((.def_299 (not .def_298))) (let ((.def_300 (=> .def_299 .def_297))) (let ((.def_301 (and act_move@1 true .def_12 .def_15))) (let ((.def_302 (and act_move@1 true .def_12 .def_18))) (let ((.def_303 (and .def_302 .def_301))) (let ((.def_304 (not .def_303))) (let ((.def_305 (or .def_302 .def_301))) (let ((.def_306 (= fluent_robot_at_r0_p0@0 fluent_robot_at_r0_p0@1))) (let ((.def_307 (not .def_306))) (let ((.def_308 (=> .def_307 .def_305))) (let ((.def_309 (and .def_308 .def_304 .def_300 .def_296 .def_292 .def_288 .def_284 .def_280 .def_276 .def_272 .def_270 .def_268 .def_265 .def_263 .def_260 .def_256 .def_252 .def_250 .def_248 .def_245 .def_243 .def_240 .def_236 .def_232 .def_230 .def_228 .def_225 .def_223 .def_220 .def_216 .def_212 .def_210 .def_208 .def_205 .def_203 .def_200 .def_196 .def_192 .def_188 .def_184 .def_180 .def_176 .def_172 .def_168 .def_164 .def_160 .def_156 .def_152 .def_148 .def_144 .def_140 .def_136 .def_130 .def_126 .def_122 .def_118 .def_114 .def_110 .def_106 .def_102 .def_98 .def_94 .def_92 .def_90 .def_87 .def_85 .def_82 .def_78 .def_74 .def_72 .def_70 .def_67 .def_65 .def_62 .def_58 .def_54))) (let ((.def_310 (and act_load@1 act_make_treatment@1 .def_132))) (let ((.def_311 (not .def_310))) (let ((.def_312 (= t@1 t@1))) (let ((.def_313 (and act_load_at_depot@1 act_move@1 .def_312))) (let ((.def_314 (not .def_313))) (let ((.def_315 (and act_unload_at_depot@1 act_load_at_depot@1 .def_312))) (let ((.def_316 (not .def_315))) (let ((.def_317 (and act_make_treatment@1 act_load_at_depot@1 .def_312))) (let ((.def_318 (not .def_317))) (let ((.def_319 (and act_unload_at_depot@1 act_move@1 .def_312))) (let ((.def_320 (not .def_319))) (let ((.def_321 (and act_load@1 act_make_treatment@1 .def_312))) (let ((.def_322 (not .def_321))) (let ((.def_323 (+ t@1 dur_make_treatment@1))) (let ((.def_324 (= t@1 .def_323))) (let ((.def_325 (and act_load@1 act_make_treatment@1 .def_324))) (let ((.def_326 (not .def_325))) (let ((.def_327 (and act_load@1 act_load_at_depot@1 .def_312))) (let ((.def_328 (not .def_327))) (let ((.def_329 (and act_load@1 act_move@1 .def_312))) (let ((.def_330 (not .def_329))) (let ((.def_331 (and act_load@1 act_unload_at_depot@1 .def_312))) (let ((.def_332 (not .def_331))) (let ((.def_333 (and act_make_treatment@1 act_move@1 .def_312))) (let ((.def_334 (not .def_333))) (let ((.def_335 (and act_make_treatment@1 act_unload_at_depot@1 .def_312))) (let ((.def_336 (not .def_335))) (let ((.def_337 (and .def_336 .def_334 .def_332 .def_330 .def_328 .def_326 .def_322 .def_320 .def_318 .def_316 .def_314 .def_311))) (let ((.def_338 (<= 0.0 t@1))) (let ((.def_339 (and .def_26 .def_20 .def_30))) (let ((.def_340 (ite .def_339 fluent_ready_plt0_p1_t0@1 fluent_ready_plt0_p0_t0@1))) (let ((.def_341 (and .def_26 .def_21 .def_29))) (let ((.def_342 (ite .def_341 fluent_ready_plt0_p0_t1@1 .def_340))) (let ((.def_343 (and .def_26 .def_20 .def_29))) (let ((.def_344 (ite .def_343 fluent_ready_plt0_p1_t1@1 .def_342))) (let ((.def_345 (and .def_26 .def_21 .def_28))) (let ((.def_346 (ite .def_345 fluent_ready_plt0_p0_t2@1 .def_344))) (let ((.def_347 (and .def_26 .def_20 .def_28))) (let ((.def_348 (ite .def_347 fluent_ready_plt0_p1_t2@1 .def_346))) (let ((.def_349 (and .def_26 .def_21 .def_27))) (let ((.def_350 (ite .def_349 fluent_ready_plt0_p0_t3@1 .def_348))) (let ((.def_351 (and .def_26 .def_20 .def_27))) (let ((.def_352 (ite .def_351 fluent_ready_plt0_p1_t3@1 .def_350))) (let ((.def_353 (= .def_352 true))) (let ((.def_354 (=> true .def_353))) (let ((.def_355 (and .def_132 .def_354))) (let ((.def_356 (ite .def_23 fluent_robot_free_r1@1 fluent_robot_free_r0@1))) (let ((.def_357 (= .def_356 true))) (let ((.def_358 (=> true .def_357))) (let ((.def_359 (and .def_26 .def_20))) (let ((.def_360 (ite .def_359 fluent_pallet_at_plt0_p1@1 fluent_pallet_at_plt0_p0@1))) (let ((.def_361 (= .def_360 true))) (let ((.def_362 (=> true .def_361))) (let ((.def_363 (and .def_23 .def_26))) (let ((.def_364 (ite .def_363 fluent_robot_has_r1_plt0@1 fluent_robot_has_r0_plt0@1))) (let ((.def_365 (= .def_364 false))) (let ((.def_366 (=> true .def_365))) (let ((.def_367 (ite .def_20 fluent_position_free_p1@1 fluent_position_free_p0@1))) (let ((.def_368 (= .def_367 false))) (let ((.def_369 (=> true .def_368))) (let ((.def_370 (and .def_312 .def_369 .def_366 .def_362 .def_358))) (let ((.def_371 (ite .def_20 fluent_position_free_p1@0 fluent_position_free_p0@0))) (let ((.def_372 (and .def_26 .def_29))) (let ((.def_373 (ite .def_372 fluent_treated_plt0_t1@0 fluent_treated_plt0_t0@0))) (let ((.def_374 (and .def_26 .def_28))) (let ((.def_375 (ite .def_374 fluent_treated_plt0_t2@0 .def_373))) (let ((.def_376 (and .def_26 .def_27))) (let ((.def_377 (ite .def_376 fluent_treated_plt0_t3@0 .def_375))) (let ((.def_378 (and .def_377 .def_371))) (let ((.def_379 (<= .def_323 t@1))) (let ((.def_380 (< (- 1.0) .def_323))) (let ((.def_381 (and .def_380 .def_379))) (let ((.def_382 (=> .def_381 .def_378))) (let ((.def_383 (not .def_377))) (let ((.def_384 (ite .def_363 fluent_robot_has_r1_plt0@0 fluent_robot_has_r0_plt0@0))) (let ((.def_385 (and .def_23 .def_21))) (let ((.def_386 (ite .def_385 fluent_robot_at_r1_p0@0 fluent_robot_at_r0_p0@0))) (let ((.def_387 (and .def_24 .def_20))) (let ((.def_388 (ite .def_387 fluent_robot_at_r0_p1@0 .def_386))) (let ((.def_389 (and .def_23 .def_20))) (let ((.def_390 (ite .def_389 fluent_robot_at_r1_p1@0 .def_388))) (let ((.def_391 (and .def_20 .def_30))) (let ((.def_392 (ite .def_391 false true))) (let ((.def_393 (and .def_21 .def_29))) (let ((.def_394 (ite .def_393 true .def_392))) (let ((.def_395 (and .def_20 .def_29))) (let ((.def_396 (ite .def_395 false .def_394))) (let ((.def_397 (and .def_21 .def_28))) (let ((.def_398 (ite .def_397 true .def_396))) (let ((.def_399 (and .def_20 .def_28))) (let ((.def_400 (ite .def_399 false .def_398))) (let ((.def_401 (and .def_21 .def_27))) (let ((.def_402 (ite .def_401 true .def_400))) (let ((.def_403 (and .def_20 .def_27))) (let ((.def_404 (ite .def_403 false .def_402))) (let ((.def_405 (and .def_404 .def_371 .def_390 .def_384 .def_383))) (let ((.def_406 (<= t@1 t@1))) (let ((.def_407 (< (- 1.0) t@1))) (let ((.def_408 (and .def_407 .def_406))) (let ((.def_409 (=> .def_408 .def_405))) (let ((.def_410 (<= dur_make_treatment@1 20.0))) (let ((.def_411 (<= 20.0 dur_make_treatment@1))) (let ((.def_412 (and .def_411 .def_410))) (let ((.def_413 (and .def_412 .def_379 .def_409 .def_382 .def_370 .def_355))) (let ((.def_414 (=> act_make_treatment@1 .def_413))) (let ((.def_415 (and .def_40 .def_35))) (let ((.def_416 (ite .def_415 fluent_robot_has_r1_plt0@1 fluent_robot_has_r0_plt0@1))) (let ((.def_417 (= .def_416 false))) (let ((.def_418 (=> true .def_417))) (let ((.def_419 (ite .def_40 fluent_robot_free_r1@1 fluent_robot_free_r0@1))) (let ((.def_420 (= .def_419 true))) (let ((.def_421 (=> true .def_420))) (let ((.def_422 (and .def_35 .def_48))) (let ((.def_423 (ite .def_422 fluent_pallet_at_plt0_p1@1 fluent_pallet_at_plt0_p0@1))) (let ((.def_424 (= .def_423 true))) (let ((.def_425 (=> true .def_424))) (let ((.def_426 (ite .def_415 fluent_robot_has_r1_plt0@0 fluent_robot_has_r0_plt0@0))) (let ((.def_427 (and .def_40 .def_49))) (let ((.def_428 (ite .def_427 fluent_robot_at_r1_p0@0 fluent_robot_at_r0_p0@0))) (let ((.def_429 (and .def_41 .def_48))) (let ((.def_430 (ite .def_429 fluent_robot_at_r0_p1@0 .def_428))) (let ((.def_431 (and .def_40 .def_48))) (let ((.def_432 (ite .def_431 fluent_robot_at_r1_p1@0 .def_430))) (let ((.def_433 (ite .def_48 true false))) (let ((.def_434 (and .def_433 .def_432 .def_426 .def_425 .def_421 .def_418))) (let ((.def_435 (=> act_unload_at_depot@1 .def_434))) (let ((.def_436 (and .def_4 .def_8))) (let ((.def_437 (ite .def_436 fluent_pallet_at_plt0_p1@1 fluent_pallet_at_plt0_p0@1))) (let ((.def_438 (= .def_437 false))) (let ((.def_439 (=> true .def_438))) (let ((.def_440 (and .def_5 .def_4))) (let ((.def_441 (ite .def_440 fluent_robot_has_r1_plt0@1 fluent_robot_has_r0_plt0@1))) (let ((.def_442 (= .def_441 true))) (let ((.def_443 (=> true .def_442))) (let ((.def_444 (ite .def_5 fluent_robot_free_r1@1 fluent_robot_free_r0@1))) (let ((.def_445 (= .def_444 false))) (let ((.def_446 (=> true .def_445))) (let ((.def_447 (ite .def_436 fluent_pallet_at_plt0_p1@0 fluent_pallet_at_plt0_p0@0))) (let ((.def_448 (ite .def_5 fluent_robot_free_r1@0 fluent_robot_free_r0@0))) (let ((.def_449 (and .def_5 .def_9))) (let ((.def_450 (ite .def_449 fluent_robot_at_r1_p0@0 fluent_robot_at_r0_p0@0))) (let ((.def_451 (and .def_6 .def_8))) (let ((.def_452 (ite .def_451 fluent_robot_at_r0_p1@0 .def_450))) (let ((.def_453 (and .def_5 .def_8))) (let ((.def_454 (ite .def_453 fluent_robot_at_r1_p1@0 .def_452))) (let ((.def_455 (ite .def_8 true false))) (let ((.def_456 (and .def_455 .def_454 .def_448 .def_447 .def_446 .def_443 .def_439))) (let ((.def_457 (=> act_load_at_depot@1 .def_456))) (let ((.def_458 (ite .def_37 fluent_position_free_p1@1 fluent_position_free_p0@1))) (let ((.def_459 (= .def_458 true))) (let ((.def_460 (=> true .def_459))) (let ((.def_461 (and .def_36 .def_45))) (let ((.def_462 (ite .def_461 fluent_treated_plt0_t1@1 fluent_treated_plt0_t0@1))) (let ((.def_463 (and .def_36 .def_44))) (let ((.def_464 (ite .def_463 fluent_treated_plt0_t2@1 .def_462))) (let ((.def_465 (and .def_36 .def_43))) (let ((.def_466 (ite .def_465 fluent_treated_plt0_t3@1 .def_464))) (let ((.def_467 (= .def_466 true))) (let ((.def_468 (=> true .def_467))) (let ((.def_469 (and .def_32 .def_36))) (let ((.def_470 (ite .def_469 fluent_robot_has_r1_plt0@1 fluent_robot_has_r0_plt0@1))) (let ((.def_471 (= .def_470 true))) (let ((.def_472 (=> true .def_471))) (let ((.def_473 (and .def_36 .def_37))) (let ((.def_474 (ite .def_473 fluent_pallet_at_plt0_p1@1 fluent_pallet_at_plt0_p0@1))) (let ((.def_475 (= .def_474 false))) (let ((.def_476 (=> true .def_475))) (let ((.def_477 (and .def_36 .def_37 .def_46))) (let ((.def_478 (ite .def_477 fluent_ready_plt0_p1_t0@1 fluent_ready_plt0_p0_t0@1))) (let ((.def_479 (and .def_36 .def_38 .def_45))) (let ((.def_480 (ite .def_479 fluent_ready_plt0_p0_t1@1 .def_478))) (let ((.def_481 (and .def_36 .def_37 .def_45))) (let ((.def_482 (ite .def_481 fluent_ready_plt0_p1_t1@1 .def_480))) (let ((.def_483 (and .def_36 .def_38 .def_44))) (let ((.def_484 (ite .def_483 fluent_ready_plt0_p0_t2@1 .def_482))) (let ((.def_485 (and .def_36 .def_37 .def_44))) (let ((.def_486 (ite .def_485 fluent_ready_plt0_p1_t2@1 .def_484))) (let ((.def_487 (and .def_36 .def_38 .def_43))) (let ((.def_488 (ite .def_487 fluent_ready_plt0_p0_t3@1 .def_486))) (let ((.def_489 (and .def_36 .def_37 .def_43))) (let ((.def_490 (ite .def_489 fluent_ready_plt0_p1_t3@1 .def_488))) (let ((.def_491 (= .def_490 false))) (let ((.def_492 (=> true .def_491))) (let ((.def_493 (ite .def_32 fluent_robot_free_r1@1 fluent_robot_free_r0@1))) (let ((.def_494 (= .def_493 false))) (let ((.def_495 (=> true .def_494))) (let ((.def_496 (ite .def_473 fluent_pallet_at_plt0_p1@0 fluent_pallet_at_plt0_p0@0))) (let ((.def_497 (ite .def_32 fluent_robot_free_r1@0 fluent_robot_free_r0@0))) (let ((.def_498 (and .def_32 .def_38))) (let ((.def_499 (ite .def_498 fluent_robot_at_r1_p0@0 fluent_robot_at_r0_p0@0))) (let ((.def_500 (and .def_33 .def_37))) (let ((.def_501 (ite .def_500 fluent_robot_at_r0_p1@0 .def_499))) (let ((.def_502 (and .def_32 .def_37))) (let ((.def_503 (ite .def_502 fluent_robot_at_r1_p1@0 .def_501))) (let ((.def_504 (ite .def_477 fluent_ready_plt0_p1_t0@0 fluent_ready_plt0_p0_t0@0))) (let ((.def_505 (ite .def_479 fluent_ready_plt0_p0_t1@0 .def_504))) (let ((.def_506 (ite .def_481 fluent_ready_plt0_p1_t1@0 .def_505))) (let ((.def_507 (ite .def_483 fluent_ready_plt0_p0_t2@0 .def_506))) (let ((.def_508 (ite .def_485 fluent_ready_plt0_p1_t2@0 .def_507))) (let ((.def_509 (ite .def_487 fluent_ready_plt0_p0_t3@0 .def_508))) (let ((.def_510 (ite .def_489 fluent_ready_plt0_p1_t3@0 .def_509))) (let ((.def_511 (and .def_510 .def_503 .def_497 .def_496 .def_495 .def_492 .def_476 .def_472 .def_468 .def_460))) (let ((.def_512 (=> act_load@1 .def_511))) (let ((.def_513 (and .def_14 .def_18))) (let ((.def_514 (ite .def_513 1.0 0.0))) (let ((.def_515 (and .def_15 .def_17))) (let ((.def_516 (ite .def_515 1.0 .def_514))) (let ((.def_517 (and .def_14 .def_17))) (let ((.def_518 (ite .def_517 0.0 .def_516))) (let ((.def_519 (ite .def_11 fluent_battery_level_r1@0 fluent_battery_level_r0@0))) (let ((.def_520 (- .def_519 .def_518))) (let ((.def_521 (ite .def_11 fluent_battery_level_r1@1 fluent_battery_level_r0@1))) (let ((.def_522 (= .def_521 .def_520))) (let ((.def_523 (=> true .def_522))) (let ((.def_524 (and .def_11 .def_15))) (let ((.def_525 (ite .def_524 fluent_robot_at_r1_p0@1 fluent_robot_at_r0_p0@1))) (let ((.def_526 (and .def_12 .def_14))) (let ((.def_527 (ite .def_526 fluent_robot_at_r0_p1@1 .def_525))) (let ((.def_528 (and .def_11 .def_14))) (let ((.def_529 (ite .def_528 fluent_robot_at_r1_p1@1 .def_527))) (let ((.def_530 (= .def_529 false))) (let ((.def_531 (=> true .def_530))) (let ((.def_532 (and .def_11 .def_18))) (let ((.def_533 (ite .def_532 fluent_robot_at_r1_p0@1 fluent_robot_at_r0_p0@1))) (let ((.def_534 (and .def_12 .def_17))) (let ((.def_535 (ite .def_534 fluent_robot_at_r0_p1@1 .def_533))) (let ((.def_536 (and .def_11 .def_17))) (let ((.def_537 (ite .def_536 fluent_robot_at_r1_p1@1 .def_535))) (let ((.def_538 (= .def_537 true))) (let ((.def_539 (=> true .def_538))) (let ((.def_540 (<= .def_518 .def_519))) (let ((.def_541 (ite .def_524 fluent_robot_at_r1_p0@0 fluent_robot_at_r0_p0@0))) (let ((.def_542 (ite .def_526 fluent_robot_at_r0_p1@0 .def_541))) (let ((.def_543 (ite .def_528 fluent_robot_at_r1_p1@0 .def_542))) (let ((.def_544 (= parameter_move_frompos@1 parameter_move_topos@1))) (let ((.def_545 (not .def_544))) (let ((.def_546 (and .def_545 .def_543 .def_540 .def_539 .def_531 .def_523))) (let ((.def_547 (=> act_move@1 .def_546))) (let ((.def_548 (<= 0.0 fluent_battery_level_r0@0))) (let ((.def_549 (<= fluent_battery_level_r1@0 100.0))) (let ((.def_550 (<= 0.0 fluent_battery_level_r1@0))) (let ((.def_551 (<= fluent_battery_level_r0@0 100.0))) (let ((.def_552 (= false false))) (let ((.def_553 (= fluent_pallet_at_plt0_p0@0 false))) (let ((.def_554 (= fluent_treated_plt0_t3@0 false))) (let ((.def_555 (= fluent_treated_plt0_t2@0 false))) (let ((.def_556 (= fluent_treated_plt0_t1@0 false))) (let ((.def_557 (= fluent_treated_plt0_t0@0 false))) (let ((.def_558 (= fluent_ready_plt0_p1_t3@0 false))) (let ((.def_559 (= fluent_ready_plt0_p0_t3@0 false))) (let ((.def_560 (= fluent_ready_plt0_p1_t2@0 false))) (let ((.def_561 (= fluent_ready_plt0_p0_t2@0 false))) (let ((.def_562 (= fluent_ready_plt0_p1_t1@0 false))) (let ((.def_563 (= fluent_ready_plt0_p0_t1@0 false))) (let ((.def_564 (= fluent_ready_plt0_p1_t0@0 false))) (let ((.def_565 (= fluent_ready_plt0_p0_t0@0 false))) (let ((.def_566 (= fluent_robot_has_r1_plt0@0 false))) (let ((.def_567 (= fluent_robot_has_r0_plt0@0 false))) (let ((.def_568 (= fluent_robot_at_r1_p0@0 false))) (let ((.def_569 (= fluent_robot_at_r0_p0@0 false))) (let ((.def_570 (= true true))) (let ((.def_571 (= fluent_position_free_p1@0 true))) (let ((.def_572 (= fluent_position_free_p0@0 true))) (let ((.def_573 (= 0.0 0.0))) (let ((.def_574 (= 1.0 1.0))) (let ((.def_575 (= fluent_battery_level_r1@0 4.0))) (let ((.def_576 (= fluent_battery_level_r0@0 4.0))) (let ((.def_577 (= fluent_pallet_at_plt0_p1@0 true))) (let ((.def_578 (= fluent_robot_free_r1@0 true))) (let ((.def_579 (= fluent_robot_at_r1_p1@0 true))) (let ((.def_580 (= fluent_robot_free_r0@0 true))) (let ((.def_581 (= fluent_robot_at_r0_p1@0 true))) (let ((.def_582 (and .def_581 .def_580 .def_579 .def_578 .def_577 .def_576 .def_575 .def_573 .def_574 .def_574 .def_573 .def_570 .def_572 .def_571 .def_570 .def_570 .def_570 .def_570 .def_569 .def_568 .def_567 .def_566 .def_565 .def_564 .def_563 .def_562 .def_561 .def_560 .def_559 .def_558 .def_557 .def_556 .def_555 .def_554 .def_553 .def_552 .def_552 .def_552 .def_552 .def_552 .def_551 .def_550 .def_549 .def_548))) (let ((.def_583 (and .def_582 .def_547 .def_512 .def_457 .def_435 .def_414 .def_338 .def_337 true .def_309 .def_50 .def_47 .def_42 .def_39 .def_36 .def_35 .def_34 .def_31 .def_26 .def_25 .def_22 .def_19 .def_16 .def_13 .def_10 .def_7 .def_4 .def_3 .def_2 .def_1 .def_0 true))) .def_583)))))))))))))))))))))))))))))))))))))))))))))))))))))))))))))))))))))))))))))))))))))))))))))))))))))))))))))))))))))))))))))))))))))))))))))))))))))))))))))))))))))))))))))))))))))))))))))))))))))))))))))))))))))))))))))))))))))))))))))))))))))))))))))))))))))))))))))))))))))))))))))))))))))))))))))))))))))))))))))))))))))))))))))))))))))))))))))))))))))))))))))))))))))))))))))))))))))))))))))))))))))))))))))))))))))))))))))))))))))))))))))))))))))))))))))))))))))))))))))))))))))))))))))))))))))))))))))))))))))))))))))))))))))))))))))))))))))))))))))))))))))))))))))))))))))))))
(check-sat)


